10
0 781515 938141 784793 336974 6699 857512 946458 898076 958663 
661793 0 953925 611909 3979 43175 956356 104995 810685 69589 
820460 591774 0 973531 643855 316244 463496 330688 943184 159024 
697402 959282 936409 0 793325 560863 344561 537791 659485 822168 
264883 514691 818928 485321 0 150546 634153 605408 965952 793149 
990851 933759 153254 340509 309326 0 701016 643416 160015 224532 
371739 47949 22352 41267 499378 730240 0 7051 365467 819280 
335629 523089 55114 202787 144685 14854 216713 0 690698 713029 
874039 692969 363828 673943 991908 701403 536808 156923 0 994979 
139473 532958 130130 403984 592252 546237 533344 857643 835048 0 